p cnf 12 23
 8  6 1009 0
 -8  -1009 0
 -6  -1009 0
 7  -2 8 0
 -7  -8 0
 2  -8 0
 -4  -3 7 0
 4  -7 0
 3  -7 0
 -3  -1 6 0
 3  -6 0
 1  -6 0
 8  6 2009 0
 -8  -2009 0
 -6  -2009 0
 -3  -1 8 0
 3  -8 0
 1  -8 0
 7  -2 6 0
 -7  -6 0
 2  -6 0
 -3  -4 7 0
 3  -7 0
 4  -7 0
-1009 -2009 -3000 0
-1009 2009 3000 0
 1009 -2009 3000 0
 1009 2009 -3000 0
3000 0
